
(set-logic ALL) 

(declare-datatype MyList ((Nil) (Cons (head Real) (tail MyList)) )) 
(declare-fun l0 () MyList) 
(declare-fun l1 () MyList) 
(declare-fun l2 () MyList) 
(declare-fun l3 () MyList) 
(declare-fun i0 () Real) 
(declare-fun i1 () Real) 
(assert (or (= l0 Nil) (is-Nil Nil) (is-Cons Nil)) )
(assert (= l3 Nil) )
(assert (= l1 Nil) )
(assert (and (= l1 Nil) (= l3 Nil) (= l0 l0)) )
(assert (or (= l0 l3) (is-Nil l3) (= l0 Nil)) )
(assert (or (= l1 Nil) (= l0 Nil)) )
(assert (and (is-Cons Nil) (= l0 Nil) (= l1 Nil) (is-Cons Nil)) )
(assert (and (= l3 l2) (= l0 l2) (= l3 l2)) )
(check-sat)
